(set-option :print-success false)
(set-logic QF_UF)
(declare-fun x3 () Bool)
(declare-fun x4 () Bool)
(declare-fun x6 () Bool)
(declare-fun x5 () Bool)
(declare-fun x7 () Bool)
(declare-fun x1 () Bool)
(declare-fun x8 () Bool)
(declare-fun x2 () Bool)
(assert x4)
(assert (or x2 x7))
(assert x6)
(assert x5)
(assert (not (= x3 (and x8 x1))))
(check-sat)
(exit)
